c 1 HAVE_CRYPTO
c 3 HAVE_HASH
c 4 HAVE_REPLICATION
c 5 HAVE_VERIFY
c 6 HAVE_SEQUENCE
c 7 HAVE_STATISTICS
c 8 DIAGNOSTIC
c 9 PAGESIZE
c 10 PS1K
c 11 PS4K
c 12 PS8K
c 13 PS16K
c 14 PS32K
c 15 CACHESIZE
c 16 CS32MB
c 17 CS16MB
c 18 CS64MB
c 19 CS512MB
p cnf 18 20
9 0
10 11 12 13 14 0
-11 -10 0
-12 -10 0
-13 -10 0
-14 -10 0
-12 -11 0
-13 -11 0
-14 -11 0
-13 -12 0
-14 -12 0
-14 -13 0
15 0
16 17 18 19 0
-17 -16 0
-18 -16 0
-19 -16 0
-18 -17 0
-19 -17 0
-19 -18 0